benchmarks/ising_models/2DLattices/SqrLattices/J_unif_-1,1/9x9_square_lattice_unif_frust.wcnf
p wcnf 225 576
w -2 1.983288 0
w 2 0.504213 0
w -3 1.499553 0
w 3 0.666866 0
w -5 1.098176 0
w 5 0.910601 0
w -6 0.506001 0
w 6 1.976279 0
w -8 1.241812 0
w 8 0.805275 0
w -9 2.579973 0
w 9 0.387601 0
w -11 0.493883 0
w 11 2.024773 0
w -12 2.179456 0
w 12 0.458830 0
w -14 0.446918 0
w 14 2.237549 0
w -15 0.852427 0
w 15 1.173121 0
w -17 2.535626 0
w 17 0.394380 0
w -18 0.614443 0
w 18 1.627490 0
w -20 1.005766 0
w 20 0.994267 0
w -21 1.422293 0
w 21 0.703090 0
w -23 0.811485 0
w 23 1.232309 0
w -24 0.552761 0
w 24 1.809100 0
w -26 0.490620 0
w 26 2.038236 0
w -28 0.550267 0
w 28 1.817298 0
w -29 0.679068 0
w 29 1.472607 0
w -31 1.493510 0
w 31 0.669563 0
w -32 2.307841 0
w 32 0.433305 0
w -34 0.517657 0
w 34 1.931781 0
w -35 2.632134 0
w 35 0.379920 0
w -37 0.377730 0
w 37 2.647395 0
w -38 2.475675 0
w 38 0.403930 0
w -40 1.810505 0
w 40 0.552332 0
w -41 0.423378 0
w 41 2.361956 0
w -43 0.398762 0
w 43 2.507760 0
w -44 0.759337 0
w 44 1.316938 0
w -46 0.574652 0
w 46 1.740185 0
w -47 2.128664 0
w 47 0.469778 0
w -49 0.368302 0
w 49 2.715162 0
w -50 0.790804 0
w 50 1.264536 0
w -52 0.579939 0
w 52 1.724321 0
w -54 1.290141 0
w 54 0.775109 0
w -55 1.650488 0
w 55 0.605881 0
w -57 0.565239 0
w 57 1.769164 0
w -58 2.428753 0
w 58 0.411734 0
w -60 2.552758 0
w 60 0.391733 0
w -61 0.472897 0
w 61 2.114627 0
w -63 0.702058 0
w 63 1.424384 0
w -64 1.122232 0
w 64 0.891081 0
w -66 1.231558 0
w 66 0.811980 0
w -67 0.751320 0
w 67 1.330991 0
w -69 0.877924 0
w 69 1.139050 0
w -70 1.007383 0
w 70 0.992671 0
w -72 1.441909 0
w 72 0.693525 0
w -73 1.946088 0
w 73 0.513851 0
w -75 0.929028 0
w 75 1.076394 0
w -76 0.857753 0
w 76 1.165837 0
w -78 1.867743 0
w 78 0.535405 0
w -80 0.386381 0
w 80 2.588117 0
w -81 2.343469 0
w 81 0.426718 0
w -83 2.462792 0
w 83 0.406043 0
w -84 1.473021 0
w 84 0.678877 0
w -86 0.721473 0
w 86 1.386053 0
w -87 0.528808 0
w 87 1.891046 0
w -89 0.681206 0
w 89 1.467984 0
w -90 1.465509 0
w 90 0.682357 0
w -92 2.186414 0
w 92 0.457370 0
w -93 0.879199 0
w 93 1.137399 0
w -95 1.490540 0
w 95 0.670898 0
w -96 1.989067 0
w 96 0.502748 0
w -98 1.431189 0
w 98 0.698720 0
w -99 0.928681 0
w 99 1.076796 0
w -101 2.129203 0
w 101 0.469659 0
w -102 0.867867 0
w 102 1.152250 0
w -104 0.992197 0
w 104 1.007864 0
w -106 1.697914 0
w 106 0.588958 0
w -107 0.822643 0
w 107 1.215594 0
w -109 1.992774 0
w 109 0.501813 0
w -110 0.467092 0
w 110 2.140906 0
w -112 2.491341 0
w 112 0.401390 0
w -113 2.053218 0
w 113 0.487040 0
w -115 0.728696 0
w 115 1.372315 0
w -116 1.777976 0
w 116 0.562437 0
w -118 0.793785 0
w 118 1.259786 0
w -119 2.654767 0
w 119 0.376681 0
w -121 1.038667 0
w 121 0.962772 0
w -122 2.609976 0
w 122 0.383145 0
w -124 0.437128 0
w 124 2.287659 0
w -125 0.538504 0
w 125 1.856996 0
w -127 1.394335 0
w 127 0.717188 0
w -128 1.189668 0
w 128 0.840571 0
w -130 0.653299 0
w 130 1.530694 0
w -132 0.505604 0
w 132 1.977831 0
w -133 1.015126 0
w 133 0.985099 0
w -135 2.114123 0
w 135 0.473009 0
w -136 1.346425 0
w 136 0.742708 0
w -138 2.171422 0
w 138 0.460528 0
w -139 0.778606 0
w 139 1.284347 0
w -141 0.540440 0
w 141 1.850346 0
w -142 1.540046 0
w 142 0.649331 0
w -144 0.375187 0
w 144 2.665336 0
w -145 0.433369 0
w 145 2.307504 0
w -147 1.363870 0
w 147 0.733208 0
w -148 0.656501 0
w 148 1.523228 0
w -150 0.486441 0
w 150 2.055748 0
w -151 0.602924 0
w 151 1.658584 0
w -153 2.296281 0
w 153 0.435487 0
w -154 0.409166 0
w 154 2.443996 0
w -156 0.484104 0
w 156 2.065671 0
w -158 2.016926 0
w 158 0.495804 0
w -159 1.651949 0
w 159 0.605346 0
w -161 2.397777 0
w 161 0.417053 0
w -162 1.035499 0
w 162 0.965718 0
w -164 1.154773 0
w 164 0.865971 0
w -165 0.667864 0
w 165 1.497310 0
w -167 1.117101 0
w 167 0.895174 0
w -168 1.628721 0
w 168 0.613979 0
w -170 1.311927 0
w 170 0.762238 0
w -171 0.682922 0
w 171 1.464295 0
w -173 0.776143 0
w 173 1.288422 0
w -174 0.811735 0
w 174 1.231929 0
w -176 2.112167 0
w 176 0.473447 0
w -177 0.496156 0
w 177 2.015493 0
w -179 0.969526 0
w 179 1.031432 0
w -180 1.592025 0
w 180 0.628131 0
w -182 0.453894 0
w 182 2.203156 0
w -184 0.395286 0
w 184 2.529817 0
w -185 1.924139 0
w 185 0.519713 0
w -187 0.685533 0
w 187 1.458718 0
w -188 0.816944 0
w 188 1.224074 0
w -190 0.967396 0
w 190 1.033703 0
w -191 0.754082 0
w 191 1.326116 0
w -193 0.769568 0
w 193 1.299430 0
w -194 1.578866 0
w 194 0.633366 0
w -196 0.369403 0
w 196 2.707074 0
w -197 0.711216 0
w 197 1.406043 0
w -199 0.393846 0
w 199 2.539065 0
w -200 0.550151 0
w 200 1.817684 0
w -202 0.390850 0
w 202 2.558529 0
w -203 1.590274 0
w 203 0.628822 0
w -205 2.277971 0
w 205 0.438987 0
w -206 0.495609 0
w 206 2.017720 0
w -208 1.677614 0
w 208 0.596085 0
w -210 0.506615 0
w 210 1.973886 0
w -212 0.955795 0
w 212 1.046249 0
w -214 0.404504 0
w 214 2.472166 0
w -216 1.601452 0
w 216 0.624433 0
w -218 0.462680 0
w 218 2.161322 0
w -220 1.682047 0
w 220 0.594514 0
w -222 0.713386 0
w 222 1.401766 0
w -224 0.573894 0
w 224 1.742482 0
2 1 4 0
2 -1 -4 0
-2 1 -4 0
-2 -1 4 0
3 1 27 0
3 -1 -27 0
-3 1 -27 0
-3 -1 27 0
5 4 7 0
5 -4 -7 0
-5 4 -7 0
-5 -4 7 0
6 4 30 0
6 -4 -30 0
-6 4 -30 0
-6 -4 30 0
8 7 10 0
8 -7 -10 0
-8 7 -10 0
-8 -7 10 0
9 7 33 0
9 -7 -33 0
-9 7 -33 0
-9 -7 33 0
11 10 13 0
11 -10 -13 0
-11 10 -13 0
-11 -10 13 0
12 10 36 0
12 -10 -36 0
-12 10 -36 0
-12 -10 36 0
14 13 16 0
14 -13 -16 0
-14 13 -16 0
-14 -13 16 0
15 13 39 0
15 -13 -39 0
-15 13 -39 0
-15 -13 39 0
17 16 19 0
17 -16 -19 0
-17 16 -19 0
-17 -16 19 0
18 16 42 0
18 -16 -42 0
-18 16 -42 0
-18 -16 42 0
20 19 22 0
20 -19 -22 0
-20 19 -22 0
-20 -19 22 0
21 19 45 0
21 -19 -45 0
-21 19 -45 0
-21 -19 45 0
23 22 25 0
23 -22 -25 0
-23 22 -25 0
-23 -22 25 0
24 22 48 0
24 -22 -48 0
-24 22 -48 0
-24 -22 48 0
26 25 51 0
26 -25 -51 0
-26 25 -51 0
-26 -25 51 0
28 27 30 0
28 -27 -30 0
-28 27 -30 0
-28 -27 30 0
29 27 53 0
29 -27 -53 0
-29 27 -53 0
-29 -27 53 0
31 30 33 0
31 -30 -33 0
-31 30 -33 0
-31 -30 33 0
32 30 56 0
32 -30 -56 0
-32 30 -56 0
-32 -30 56 0
34 33 36 0
34 -33 -36 0
-34 33 -36 0
-34 -33 36 0
35 33 59 0
35 -33 -59 0
-35 33 -59 0
-35 -33 59 0
37 36 39 0
37 -36 -39 0
-37 36 -39 0
-37 -36 39 0
38 36 62 0
38 -36 -62 0
-38 36 -62 0
-38 -36 62 0
40 39 42 0
40 -39 -42 0
-40 39 -42 0
-40 -39 42 0
41 39 65 0
41 -39 -65 0
-41 39 -65 0
-41 -39 65 0
43 42 45 0
43 -42 -45 0
-43 42 -45 0
-43 -42 45 0
44 42 68 0
44 -42 -68 0
-44 42 -68 0
-44 -42 68 0
46 45 48 0
46 -45 -48 0
-46 45 -48 0
-46 -45 48 0
47 45 71 0
47 -45 -71 0
-47 45 -71 0
-47 -45 71 0
49 48 51 0
49 -48 -51 0
-49 48 -51 0
-49 -48 51 0
50 48 74 0
50 -48 -74 0
-50 48 -74 0
-50 -48 74 0
52 51 77 0
52 -51 -77 0
-52 51 -77 0
-52 -51 77 0
54 53 56 0
54 -53 -56 0
-54 53 -56 0
-54 -53 56 0
55 53 79 0
55 -53 -79 0
-55 53 -79 0
-55 -53 79 0
57 56 59 0
57 -56 -59 0
-57 56 -59 0
-57 -56 59 0
58 56 82 0
58 -56 -82 0
-58 56 -82 0
-58 -56 82 0
60 59 62 0
60 -59 -62 0
-60 59 -62 0
-60 -59 62 0
61 59 85 0
61 -59 -85 0
-61 59 -85 0
-61 -59 85 0
63 62 65 0
63 -62 -65 0
-63 62 -65 0
-63 -62 65 0
64 62 88 0
64 -62 -88 0
-64 62 -88 0
-64 -62 88 0
66 65 68 0
66 -65 -68 0
-66 65 -68 0
-66 -65 68 0
67 65 91 0
67 -65 -91 0
-67 65 -91 0
-67 -65 91 0
69 68 71 0
69 -68 -71 0
-69 68 -71 0
-69 -68 71 0
70 68 94 0
70 -68 -94 0
-70 68 -94 0
-70 -68 94 0
72 71 74 0
72 -71 -74 0
-72 71 -74 0
-72 -71 74 0
73 71 97 0
73 -71 -97 0
-73 71 -97 0
-73 -71 97 0
75 74 77 0
75 -74 -77 0
-75 74 -77 0
-75 -74 77 0
76 74 100 0
76 -74 -100 0
-76 74 -100 0
-76 -74 100 0
78 77 103 0
78 -77 -103 0
-78 77 -103 0
-78 -77 103 0
80 79 82 0
80 -79 -82 0
-80 79 -82 0
-80 -79 82 0
81 79 105 0
81 -79 -105 0
-81 79 -105 0
-81 -79 105 0
83 82 85 0
83 -82 -85 0
-83 82 -85 0
-83 -82 85 0
84 82 108 0
84 -82 -108 0
-84 82 -108 0
-84 -82 108 0
86 85 88 0
86 -85 -88 0
-86 85 -88 0
-86 -85 88 0
87 85 111 0
87 -85 -111 0
-87 85 -111 0
-87 -85 111 0
89 88 91 0
89 -88 -91 0
-89 88 -91 0
-89 -88 91 0
90 88 114 0
90 -88 -114 0
-90 88 -114 0
-90 -88 114 0
92 91 94 0
92 -91 -94 0
-92 91 -94 0
-92 -91 94 0
93 91 117 0
93 -91 -117 0
-93 91 -117 0
-93 -91 117 0
95 94 97 0
95 -94 -97 0
-95 94 -97 0
-95 -94 97 0
96 94 120 0
96 -94 -120 0
-96 94 -120 0
-96 -94 120 0
98 97 100 0
98 -97 -100 0
-98 97 -100 0
-98 -97 100 0
99 97 123 0
99 -97 -123 0
-99 97 -123 0
-99 -97 123 0
101 100 103 0
101 -100 -103 0
-101 100 -103 0
-101 -100 103 0
102 100 126 0
102 -100 -126 0
-102 100 -126 0
-102 -100 126 0
104 103 129 0
104 -103 -129 0
-104 103 -129 0
-104 -103 129 0
106 105 108 0
106 -105 -108 0
-106 105 -108 0
-106 -105 108 0
107 105 131 0
107 -105 -131 0
-107 105 -131 0
-107 -105 131 0
109 108 111 0
109 -108 -111 0
-109 108 -111 0
-109 -108 111 0
110 108 134 0
110 -108 -134 0
-110 108 -134 0
-110 -108 134 0
112 111 114 0
112 -111 -114 0
-112 111 -114 0
-112 -111 114 0
113 111 137 0
113 -111 -137 0
-113 111 -137 0
-113 -111 137 0
115 114 117 0
115 -114 -117 0
-115 114 -117 0
-115 -114 117 0
116 114 140 0
116 -114 -140 0
-116 114 -140 0
-116 -114 140 0
118 117 120 0
118 -117 -120 0
-118 117 -120 0
-118 -117 120 0
119 117 143 0
119 -117 -143 0
-119 117 -143 0
-119 -117 143 0
121 120 123 0
121 -120 -123 0
-121 120 -123 0
-121 -120 123 0
122 120 146 0
122 -120 -146 0
-122 120 -146 0
-122 -120 146 0
124 123 126 0
124 -123 -126 0
-124 123 -126 0
-124 -123 126 0
125 123 149 0
125 -123 -149 0
-125 123 -149 0
-125 -123 149 0
127 126 129 0
127 -126 -129 0
-127 126 -129 0
-127 -126 129 0
128 126 152 0
128 -126 -152 0
-128 126 -152 0
-128 -126 152 0
130 129 155 0
130 -129 -155 0
-130 129 -155 0
-130 -129 155 0
132 131 134 0
132 -131 -134 0
-132 131 -134 0
-132 -131 134 0
133 131 157 0
133 -131 -157 0
-133 131 -157 0
-133 -131 157 0
135 134 137 0
135 -134 -137 0
-135 134 -137 0
-135 -134 137 0
136 134 160 0
136 -134 -160 0
-136 134 -160 0
-136 -134 160 0
138 137 140 0
138 -137 -140 0
-138 137 -140 0
-138 -137 140 0
139 137 163 0
139 -137 -163 0
-139 137 -163 0
-139 -137 163 0
141 140 143 0
141 -140 -143 0
-141 140 -143 0
-141 -140 143 0
142 140 166 0
142 -140 -166 0
-142 140 -166 0
-142 -140 166 0
144 143 146 0
144 -143 -146 0
-144 143 -146 0
-144 -143 146 0
145 143 169 0
145 -143 -169 0
-145 143 -169 0
-145 -143 169 0
147 146 149 0
147 -146 -149 0
-147 146 -149 0
-147 -146 149 0
148 146 172 0
148 -146 -172 0
-148 146 -172 0
-148 -146 172 0
150 149 152 0
150 -149 -152 0
-150 149 -152 0
-150 -149 152 0
151 149 175 0
151 -149 -175 0
-151 149 -175 0
-151 -149 175 0
153 152 155 0
153 -152 -155 0
-153 152 -155 0
-153 -152 155 0
154 152 178 0
154 -152 -178 0
-154 152 -178 0
-154 -152 178 0
156 155 181 0
156 -155 -181 0
-156 155 -181 0
-156 -155 181 0
158 157 160 0
158 -157 -160 0
-158 157 -160 0
-158 -157 160 0
159 157 183 0
159 -157 -183 0
-159 157 -183 0
-159 -157 183 0
161 160 163 0
161 -160 -163 0
-161 160 -163 0
-161 -160 163 0
162 160 186 0
162 -160 -186 0
-162 160 -186 0
-162 -160 186 0
164 163 166 0
164 -163 -166 0
-164 163 -166 0
-164 -163 166 0
165 163 189 0
165 -163 -189 0
-165 163 -189 0
-165 -163 189 0
167 166 169 0
167 -166 -169 0
-167 166 -169 0
-167 -166 169 0
168 166 192 0
168 -166 -192 0
-168 166 -192 0
-168 -166 192 0
170 169 172 0
170 -169 -172 0
-170 169 -172 0
-170 -169 172 0
171 169 195 0
171 -169 -195 0
-171 169 -195 0
-171 -169 195 0
173 172 175 0
173 -172 -175 0
-173 172 -175 0
-173 -172 175 0
174 172 198 0
174 -172 -198 0
-174 172 -198 0
-174 -172 198 0
176 175 178 0
176 -175 -178 0
-176 175 -178 0
-176 -175 178 0
177 175 201 0
177 -175 -201 0
-177 175 -201 0
-177 -175 201 0
179 178 181 0
179 -178 -181 0
-179 178 -181 0
-179 -178 181 0
180 178 204 0
180 -178 -204 0
-180 178 -204 0
-180 -178 204 0
182 181 207 0
182 -181 -207 0
-182 181 -207 0
-182 -181 207 0
184 183 186 0
184 -183 -186 0
-184 183 -186 0
-184 -183 186 0
185 183 209 0
185 -183 -209 0
-185 183 -209 0
-185 -183 209 0
187 186 189 0
187 -186 -189 0
-187 186 -189 0
-187 -186 189 0
188 186 211 0
188 -186 -211 0
-188 186 -211 0
-188 -186 211 0
190 189 192 0
190 -189 -192 0
-190 189 -192 0
-190 -189 192 0
191 189 213 0
191 -189 -213 0
-191 189 -213 0
-191 -189 213 0
193 192 195 0
193 -192 -195 0
-193 192 -195 0
-193 -192 195 0
194 192 215 0
194 -192 -215 0
-194 192 -215 0
-194 -192 215 0
196 195 198 0
196 -195 -198 0
-196 195 -198 0
-196 -195 198 0
197 195 217 0
197 -195 -217 0
-197 195 -217 0
-197 -195 217 0
199 198 201 0
199 -198 -201 0
-199 198 -201 0
-199 -198 201 0
200 198 219 0
200 -198 -219 0
-200 198 -219 0
-200 -198 219 0
202 201 204 0
202 -201 -204 0
-202 201 -204 0
-202 -201 204 0
203 201 221 0
203 -201 -221 0
-203 201 -221 0
-203 -201 221 0
205 204 207 0
205 -204 -207 0
-205 204 -207 0
-205 -204 207 0
206 204 223 0
206 -204 -223 0
-206 204 -223 0
-206 -204 223 0
208 207 225 0
208 -207 -225 0
-208 207 -225 0
-208 -207 225 0
210 209 211 0
210 -209 -211 0
-210 209 -211 0
-210 -209 211 0
212 211 213 0
212 -211 -213 0
-212 211 -213 0
-212 -211 213 0
214 213 215 0
214 -213 -215 0
-214 213 -215 0
-214 -213 215 0
216 215 217 0
216 -215 -217 0
-216 215 -217 0
-216 -215 217 0
218 217 219 0
218 -217 -219 0
-218 217 -219 0
-218 -217 219 0
220 219 221 0
220 -219 -221 0
-220 219 -221 0
-220 -219 221 0
222 221 223 0
222 -221 -223 0
-222 221 -223 0
-222 -221 223 0
224 223 225 0
224 -223 -225 0
-224 223 -225 0
-224 -223 225 0
