benchmarks/ising_models/2DLattices/SqrLattices/J_unif_-1,1/9x9_square_lattice_unif_frust
ISING
81
2 2 2 2 2 2 2 2 2 2 2 2 2 2 2 2 2 2 2 2 2 2 2 2 2 2 2 2 2 2 2 2 2 2 2 2 2 2 2 2 2 2 2 2 2 2 2 2 2 2 2 2 2 2 2 2 2 2 2 2 2 2 2 2 2 2 2 2 2 2 2 2 2 2 2 2 2 2 2 2 2
0 144 1.0 1
2 0 1
2 0 9
2 1 2
2 1 10
2 2 3
2 2 11
2 3 4
2 3 12
2 4 5
2 4 13
2 5 6
2 5 14
2 6 7
2 6 15
2 7 8
2 7 16
2 8 17
2 9 10
2 9 18
2 10 11
2 10 19
2 11 12
2 11 20
2 12 13
2 12 21
2 13 14
2 13 22
2 14 15
2 14 23
2 15 16
2 15 24
2 16 17
2 16 25
2 17 26
2 18 19
2 18 27
2 19 20
2 19 28
2 20 21
2 20 29
2 21 22
2 21 30
2 22 23
2 22 31
2 23 24
2 23 32
2 24 25
2 24 33
2 25 26
2 25 34
2 26 35
2 27 28
2 27 36
2 28 29
2 28 37
2 29 30
2 29 38
2 30 31
2 30 39
2 31 32
2 31 40
2 32 33
2 32 41
2 33 34
2 33 42
2 34 35
2 34 43
2 35 44
2 36 37
2 36 45
2 37 38
2 37 46
2 38 39
2 38 47
2 39 40
2 39 48
2 40 41
2 40 49
2 41 42
2 41 50
2 42 43
2 42 51
2 43 44
2 43 52
2 44 53
2 45 46
2 45 54
2 46 47
2 46 55
2 47 48
2 47 56
2 48 49
2 48 57
2 49 50
2 49 58
2 50 51
2 50 59
2 51 52
2 51 60
2 52 53
2 52 61
2 53 62
2 54 55
2 54 63
2 55 56
2 55 64
2 56 57
2 56 65
2 57 58
2 57 66
2 58 59
2 58 67
2 59 60
2 59 68
2 60 61
2 60 69
2 61 62
2 61 70
2 62 71
2 63 64
2 63 72
2 64 65
2 64 73
2 65 66
2 65 74
2 66 67
2 66 75
2 67 68
2 67 76
2 68 69
2 68 77
2 69 70
2 69 78
2 70 71
2 70 79
2 71 80
2 72 73
2 73 74
2 74 75
2 75 76
2 76 77
2 77 78
2 78 79
2 79 80

4
 -0.6847563008412285 0.6847563008412285
 0.6847563008412285 -0.6847563008412285
4
 -0.4051668654815648 0.4051668654815648
 0.4051668654815648 -0.4051668654815648
4
 -0.09365089779482605 0.09365089779482605
 0.09365089779482605 -0.09365089779482605
4
 0.681215772327125 -0.681215772327125
 -0.681215772327125 0.681215772327125
4
 -0.21657162419452036 0.21657162419452036
 0.21657162419452036 -0.21657162419452036
4
 -0.9477791013258794 0.9477791013258794
 0.9477791013258794 -0.9477791013258794
4
 0.7054574147681976 -0.7054574147681976
 -0.7054574147681976 0.7054574147681976
4
 -0.7790751101603375 0.7790751101603375
 0.7790751101603375 -0.7790751101603375
4
 0.805381046577625 -0.805381046577625
 -0.805381046577625 0.805381046577625
4
 0.15966813234693777 -0.15966813234693777
 -0.15966813234693777 0.15966813234693777
4
 -0.9304405315348772 0.9304405315348772
 0.9304405315348772 -0.9304405315348772
4
 0.48703869601034677 -0.48703869601034677
 -0.48703869601034677 0.48703869601034677
4
 -0.005749863035815483 0.005749863035815483
 0.005749863035815483 -0.005749863035815483
4
 -0.35227034816194003 0.35227034816194003
 0.35227034816194003 -0.35227034816194003
4
 0.20888929608549445 -0.20888929608549445
 -0.20888929608549445 0.20888929608549445
4
 0.5928294916653543 -0.5928294916653543
 -0.5928294916653543 0.5928294916653543
4
 0.7120847699552593 -0.7120847699552593
 -0.7120847699552593 0.7120847699552593
4
 0.59735101166838 -0.59735101166838
 -0.59735101166838 0.59735101166838
4
 0.38703410841912733 -0.38703410841912733
 -0.38703410841912733 0.38703410841912733
4
 -0.4011293750131044 0.4011293750131044
 0.4011293750131044 -0.4011293750131044
4
 -0.8363126045679825 0.8363126045679825
 0.8363126045679825 -0.8363126045679825
4
 0.6584421268906551 -0.6584421268906551
 -0.6584421268906551 0.6584421268906551
4
 -0.9677948425529819 0.9677948425529819
 0.9677948425529819 -0.9677948425529819
4
 0.9735762812661284 -0.9735762812661284
 -0.9735762812661284 0.9735762812661284
4
 -0.906512900796598 0.906512900796598
 0.906512900796598 -0.906512900796598
4
 -0.5936055398472857 0.5936055398472857
 0.5936055398472857 -0.5936055398472857
4
 0.8594899750857423 -0.8594899750857423
 -0.8594899750857423 0.8594899750857423
4
 0.91939001737888 -0.91939001737888
 -0.91939001737888 0.91939001737888
4
 0.27530917112247644 -0.27530917112247644
 -0.27530917112247644 0.27530917112247644
4
 0.5539913345591514 -0.5539913345591514
 -0.5539913345591514 0.5539913345591514
4
 -0.7554944802809116 0.7554944802809116
 0.7554944802809116 -0.7554944802809116
4
 0.9988515834351301 -0.9988515834351301
 -0.9988515834351301 0.9988515834351301
4
 0.23470555035919416 -0.23470555035919416
 -0.23470555035919416 0.23470555035919416
4
 0.5448330930347609 -0.5448330930347609
 -0.5448330930347609 0.5448330930347609
4
 -0.25475119455899664 0.25475119455899664
 0.25475119455899664 -0.25475119455899664
4
 -0.501071044138174 0.501071044138174
 0.501071044138174 -0.501071044138174
4
 0.5705073873733855 -0.5705073873733855
 -0.5705073873733855 0.5705073873733855
4
 -0.8873781185295067 0.8873781185295067
 0.8873781185295067 -0.8873781185295067
4
 -0.9371744110299587 0.9371744110299587
 0.9371744110299587 -0.9371744110299587
4
 0.7488785266639395 -0.7488785266639395
 -0.7488785266639395 0.7488785266639395
4
 0.35373965592186773 -0.35373965592186773
 -0.35373965592186773 0.35373965592186773
4
 -0.11531985763000696 0.11531985763000696
 0.11531985763000696 -0.11531985763000696
4
 -0.20828015003748912 0.20828015003748912
 0.20828015003748912 -0.20828015003748912
4
 0.2859238375695079 -0.2859238375695079
 -0.2859238375695079 0.2859238375695079
4
 0.13019473588206432 -0.13019473588206432
 -0.13019473588206432 0.13019473588206432
4
 -0.0073555536699623225 0.0073555536699623225
 0.0073555536699623225 -0.0073555536699623225
4
 -0.36596774209861715 0.36596774209861715
 0.36596774209861715 -0.36596774209861715
4
 -0.6658210011072236 0.6658210011072236
 0.6658210011072236 -0.6658210011072236
4
 0.07361613789767762 -0.07361613789767762
 -0.07361613789767762 0.07361613789767762
4
 0.1534391489320679 -0.1534391489320679
 -0.1534391489320679 0.1534391489320679
4
 -0.6247309289265395 0.6247309289265395
 0.6247309289265395 -0.6247309289265395
4
 0.9509306958618986 -0.9509306958618986
 -0.9509306958618986 0.9509306958618986
4
 -0.8516324048852586 0.8516324048852586
 0.8516324048852586 -0.8516324048852586
4
 -0.9012956142087487 0.9012956142087487
 0.9012956142087487 -0.9012956142087487
4
 -0.3873153240698848 0.3873153240698848
 0.3873153240698848 -0.3873153240698848
4
 0.3264603198805198 -0.3264603198805198
 -0.3264603198805198 0.3264603198805198
4
 0.6371299269141621 -0.6371299269141621
 -0.6371299269141621 0.6371299269141621
4
 0.383890320114177 -0.383890320114177
 -0.383890320114177 0.383890320114177
4
 -0.38220275693770334 0.38220275693770334
 0.38220275693770334 -0.38220275693770334
4
 -0.7822628152305202 0.7822628152305202
 0.7822628152305202 -0.7822628152305202
4
 0.12874443028541394 -0.12874443028541394
 -0.12874443028541394 0.12874443028541394
4
 -0.3991381975598789 0.3991381975598789
 0.3991381975598789 -0.3991381975598789
4
 -0.6876658702759941 0.6876658702759941
 0.6876658702759941 -0.6876658702759941
4
 -0.3585058244516306 0.3585058244516306
 0.3585058244516306 -0.3585058244516306
4
 0.07398994787892832 -0.07398994787892832
 -0.07398994787892832 0.07398994787892832
4
 -0.755747661016311 0.755747661016311
 0.755747661016311 -0.755747661016311
4
 0.14171677098051338 -0.14171677098051338
 -0.14171677098051338 0.14171677098051338
4
 0.007833520398021765 -0.007833520398021765
 -0.007833520398021765 0.007833520398021765
4
 -0.5294002468244818 0.5294002468244818
 0.5294002468244818 -0.5294002468244818
4
 0.19523243609285013 -0.19523243609285013
 -0.19523243609285013 0.19523243609285013
4
 -0.6895276111284205 0.6895276111284205
 0.6895276111284205 -0.6895276111284205
4
 0.7612289133133952 -0.7612289133133952
 -0.7612289133133952 0.7612289133133952
4
 -0.9128212838552148 0.9128212838552148
 0.9128212838552148 -0.9128212838552148
4
 -0.7194082125587391 0.7194082125587391
 0.7194082125587391 -0.7194082125587391
4
 0.31649925149168734 -0.31649925149168734
 -0.31649925149168734 0.31649925149168734
4
 -0.5754758349188891 0.5754758349188891
 0.5754758349188891 -0.5754758349188891
4
 0.23094219742528166 -0.23094219742528166
 -0.23094219742528166 0.23094219742528166
4
 -0.9763568704660128 0.9763568704660128
 0.9763568704660128 -0.9763568704660128
4
 -0.037938641021568076 0.037938641021568076
 0.037938641021568076 -0.037938641021568076
4
 -0.9593408422836052 0.9593408422836052
 0.9593408422836052 -0.9593408422836052
4
 0.8275289437926456 -0.8275289437926456
 -0.8275289437926456 0.8275289437926456
4
 0.6189600157302422 -0.6189600157302422
 -0.6189600157302422 0.6189600157302422
4
 -0.3324178581883521 0.3324178581883521
 0.3324178581883521 -0.3324178581883521
4
 -0.17367387267063328 0.17367387267063328
 0.17367387267063328 -0.17367387267063328
4
 0.42572109744431064 -0.42572109744431064
 -0.42572109744431064 0.42572109744431064
4
 0.6820006107841141 -0.6820006107841141
 -0.6820006107841141 0.6820006107841141
4
 -0.015013014194581675 0.015013014194581675
 0.015013014194581675 -0.015013014194581675
4
 -0.7486402794107969 0.7486402794107969
 0.7486402794107969 -0.7486402794107969
4
 -0.2974528861511607 0.2974528861511607
 0.2974528861511607 -0.2974528861511607
4
 -0.7753824006832477 0.7753824006832477
 0.7753824006832477 -0.7753824006832477
4
 0.2502506866694818 -0.2502506866694818
 -0.2502506866694818 0.2502506866694818
4
 0.6153725763385076 -0.6153725763385076
 -0.6153725763385076 0.6153725763385076
4
 -0.4318122522360195 0.4318122522360195
 0.4318122522360195 -0.4318122522360195
4
 0.9803300196315821 -0.9803300196315821
 -0.9803300196315821 0.9803300196315821
4
 0.8361665414774446 -0.8361665414774446
 -0.8361665414774446 0.8361665414774446
4
 -0.31032609226640906 0.31032609226640906
 0.31032609226640906 -0.31032609226640906
4
 0.4208316461868744 -0.4208316461868744
 -0.4208316461868744 0.4208316461868744
4
 0.7206399127107632 -0.7206399127107632
 -0.7206399127107632 0.7206399127107632
4
 0.5059640952328499 -0.5059640952328499
 -0.5059640952328499 0.5059640952328499
4
 -0.8312909325390787 0.8312909325390787
 0.8312909325390787 -0.8312909325390787
4
 0.8936343269080698 -0.8936343269080698
 -0.8936343269080698 0.8936343269080698
4
 0.725454921242404 -0.725454921242404
 -0.725454921242404 0.725454921242404
4
 -0.7015745042990325 0.7015745042990325
 0.7015745042990325 -0.7015745042990325
4
 -0.5019558178402523 0.5019558178402523
 0.5019558178402523 -0.5019558178402523
4
 -0.874542265780077 0.874542265780077
 0.874542265780077 -0.874542265780077
4
 -0.03488318126809742 0.03488318126809742
 0.03488318126809742 -0.03488318126809742
4
 -0.14390413290729764 0.14390413290729764
 0.14390413290729764 -0.14390413290729764
4
 0.40367044152941656 -0.40367044152941656
 -0.40367044152941656 0.40367044152941656
4
 -0.11073667614280858 0.11073667614280858
 0.11073667614280858 -0.11073667614280858
4
 -0.4877952642528438 0.4877952642528438
 0.4877952642528438 -0.4877952642528438
4
 -0.2714966893683648 0.2714966893683648
 0.2714966893683648 -0.2714966893683648
4
 0.3813742307895558 -0.3813742307895558
 -0.3813742307895558 0.3813742307895558
4
 0.2534180878486956 -0.2534180878486956
 -0.2534180878486956 0.2534180878486956
4
 0.20858125180703468 -0.20858125180703468
 -0.20858125180703468 0.20858125180703468
4
 -0.7477145835600445 0.7477145835600445
 0.7477145835600445 -0.7477145835600445
4
 0.7008640389805882 -0.7008640389805882
 -0.7008640389805882 0.7008640389805882
4
 0.030948348925587732 -0.030948348925587732
 -0.030948348925587732 0.030948348925587732
4
 -0.46500684023846617 0.46500684023846617
 0.46500684023846617 -0.46500684023846617
4
 0.7898908159142524 -0.7898908159142524
 -0.7898908159142524 0.7898908159142524
4
 0.9281468157410233 -0.9281468157410233
 -0.9281468157410233 0.9281468157410233
4
 -0.654478621189774 0.654478621189774
 0.654478621189774 -0.654478621189774
4
 0.37755826598384035 -0.37755826598384035
 -0.37755826598384035 0.37755826598384035
4
 0.20218504370802348 -0.20218504370802348
 -0.20218504370802348 0.20218504370802348
4
 0.033147652323626486 -0.033147652323626486
 -0.033147652323626486 0.033147652323626486
4
 0.28225471020689263 -0.28225471020689263
 -0.28225471020689263 0.28225471020689263
4
 0.26192539243668467 -0.26192539243668467
 -0.26192539243668467 0.26192539243668467
4
 -0.4567066750873514 0.4567066750873514
 0.4567066750873514 -0.4567066750873514
4
 0.9958682223855706 -0.9958682223855706
 -0.9958682223855706 0.9958682223855706
4
 0.34077960571266264 -0.34077960571266264
 -0.34077960571266264 0.34077960571266264
4
 0.931796098636088 -0.931796098636088
 -0.931796098636088 0.931796098636088
4
 0.5975632105869992 -0.5975632105869992
 -0.5975632105869992 0.5975632105869992
4
 0.9394325258132099 -0.9394325258132099
 -0.9394325258132099 0.9394325258132099
4
 -0.4639064311984118 0.4639064311984118
 0.4639064311984118 -0.4639064311984118
4
 -0.82328531982063 0.82328531982063
 0.82328531982063 -0.82328531982063
4
 0.701968298616946 -0.701968298616946
 -0.701968298616946 0.701968298616946
4
 -0.5173727884873256 0.5173727884873256
 0.5173727884873256 -0.5173727884873256
4
 0.6800042932869363 -0.6800042932869363
 -0.6800042932869363 0.6800042932869363
4
 0.04521169479108478 -0.04521169479108478
 -0.04521169479108478 0.04521169479108478
4
 0.9050946867874952 -0.9050946867874952
 -0.9050946867874952 0.9050946867874952
4
 -0.4709110000864274 0.4709110000864274
 0.4709110000864274 -0.4709110000864274
4
 0.770719891344728 -0.770719891344728
 -0.770719891344728 0.770719891344728
4
 -0.5200116882084489 0.5200116882084489
 0.5200116882084489 -0.5200116882084489
4
 0.33773305578758306 -0.33773305578758306
 -0.33773305578758306 0.33773305578758306
4
 0.5553106516570769 -0.5553106516570769
 -0.5553106516570769 0.5553106516570769
